33D32945 STP File, STP Format Version 1.0

SECTION Comments
Name "shell_n12_d3_s39"
Problem "Euclidean Steiner Tree Problem"
Remark "Generated with STPGenerator. 3 dimensions."
END

SECTION Graph
Nodes 12
END

SECTION Coordinates
DDD 0 0.9617609128 -0.2064747069 0.1799559446
DDD 1 0.6394244226 -0.3980971990 0.6577651768
DDD 2 -0.0493782159 0.7205523877 -0.6916401148
DDD 3 -0.7166601082 -0.5904248377 -0.3712099142
DDD 4 -0.2819774959 -0.9348574962 0.2157084922
DDD 5 0.8850918706 -0.0721523691 0.4597895348
DDD 6 -0.6082212067 -0.1508569403 -0.7793004217
DDD 7 0.5816022522 -0.0428924890 -0.8123417105
DDD 8 -0.7800275311 -0.6012733293 -0.1732842584
DDD 9 0.2823812027 -0.9295023234 -0.2372473125
DDD 10 -0.3973750610 0.5299922744 -0.7491336663
DDD 11 0.1902682767 -0.9805960405 0.0472163981
END
